914632
11 1 8732
1 21 6578
21 10 5744
10 35 6355
35 2 10541
2 27 15288
27 18 12606
18 40 18404
40 19 13572
19 4 26533
4 22 23621
22 24 45980
24 5 63665
5 32 3290
32 20 24202
20 26 24941
26 33 15458
33 12 3967
12 34 39715
34 23 31609
23 25 11530
25 39 4093
39 37 6534
37 30 941
30 31 10287
31 28 12751
28 13 6411
13 38 18675
38 29 745
29 7 22890
7 36 11794
36 6 22446
6 9 47658
9 15 71452
15 17 45489
17 14 42391
14 3 30026
3 16 71701
16 8 58436
8 11 17581
